\ Model facility
\ LP format - for model browsing. Use MPS format to capture full model detail.
Minimize
  d
Subject To
 assmt(0,0): z[0,0,1] + z[0,0,2] = 1
 assmt(0,1): z[0,1,1] + z[0,1,2] = 1
 assmt(0,2): z[0,2,1] + z[0,2,2] = 1
 assmt(1,0): z[1,0,1] + z[1,0,2] = 1
 assmt(1,1): z[1,1,1] + z[1,1,2] = 1
 assmt(1,2): z[1,2,1] + z[1,2,2] = 1
 assmt(2,0): z[2,0,1] + z[2,0,2] = 1
 assmt(2,1): z[2,1,1] + z[2,1,2] = 1
 assmt(2,2): z[2,2,1] + z[2,2,2] = 1
 quadrhs(0,0,1): s[0,0,1] + 2.828 z[0,0,1] - d = 2.828
 quadrhs(0,0,2): s[0,0,2] + 2.828 z[0,0,2] - d = 2.828
 quadrhs(0,1,1): s[0,1,1] + 2.828 z[0,1,1] - d = 2.828
 quadrhs(0,1,2): s[0,1,2] + 2.828 z[0,1,2] - d = 2.828
 quadrhs(0,2,1): s[0,2,1] + 2.828 z[0,2,1] - d = 2.828
 quadrhs(0,2,2): s[0,2,2] + 2.828 z[0,2,2] - d = 2.828
 quadrhs(1,0,1): s[1,0,1] + 2.828 z[1,0,1] - d = 2.828
 quadrhs(1,0,2): s[1,0,2] + 2.828 z[1,0,2] - d = 2.828
 quadrhs(1,1,1): s[1,1,1] + 2.828 z[1,1,1] - d = 2.828
 quadrhs(1,1,2): s[1,1,2] + 2.828 z[1,1,2] - d = 2.828
 quadrhs(1,2,1): s[1,2,1] + 2.828 z[1,2,1] - d = 2.828
 quadrhs(1,2,2): s[1,2,2] + 2.828 z[1,2,2] - d = 2.828
 quadrhs(2,0,1): s[2,0,1] + 2.828 z[2,0,1] - d = 2.828
 quadrhs(2,0,2): s[2,0,2] + 2.828 z[2,0,2] - d = 2.828
 quadrhs(2,1,1): s[2,1,1] + 2.828 z[2,1,1] - d = 2.828
 quadrhs(2,1,2): s[2,1,2] + 2.828 z[2,1,2] - d = 2.828
 quadrhs(2,2,1): s[2,2,1] + 2.828 z[2,2,1] - d = 2.828
 quadrhs(2,2,2): s[2,2,2] + 2.828 z[2,2,2] - d = 2.828
 quaddistk1(0,0,1): y[1,1] + r[0,0,1,1] = 0
 quaddistk1(0,0,2): y[2,1] + r[0,0,2,1] = 0
 quaddistk1(0,1,1): y[1,1] + r[0,1,1,1] = 0
 quaddistk1(0,1,2): y[2,1] + r[0,1,2,1] = 0
 quaddistk1(0,2,1): y[1,1] + r[0,2,1,1] = 0
 quaddistk1(0,2,2): y[2,1] + r[0,2,2,1] = 0
 quaddistk1(1,0,1): y[1,1] + r[1,0,1,1] = 0.5
 quaddistk1(1,0,2): y[2,1] + r[1,0,2,1] = 0.5
 quaddistk1(1,1,1): y[1,1] + r[1,1,1,1] = 0.5
 quaddistk1(1,1,2): y[2,1] + r[1,1,2,1] = 0.5
 quaddistk1(1,2,1): y[1,1] + r[1,2,1,1] = 0.5
 quaddistk1(1,2,2): y[2,1] + r[1,2,2,1] = 0.5
 quaddistk1(2,0,1): y[1,1] + r[2,0,1,1] = 1
 quaddistk1(2,0,2): y[2,1] + r[2,0,2,1] = 1
 quaddistk1(2,1,1): y[1,1] + r[2,1,1,1] = 1
 quaddistk1(2,1,2): y[2,1] + r[2,1,2,1] = 1
 quaddistk1(2,2,1): y[1,1] + r[2,2,1,1] = 1
 quaddistk1(2,2,2): y[2,1] + r[2,2,2,1] = 1
 quaddistk2(0,0,1): y[1,2] + r[0,0,1,2] = 0
 quaddistk2(0,0,2): y[2,2] + r[0,0,2,2] = 0
 quaddistk2(0,1,1): y[1,2] + r[0,1,1,2] = 0.5
 quaddistk2(0,1,2): y[2,2] + r[0,1,2,2] = 0.5
 quaddistk2(0,2,1): y[1,2] + r[0,2,1,2] = 1
 quaddistk2(0,2,2): y[2,2] + r[0,2,2,2] = 1
 quaddistk2(1,0,1): y[1,2] + r[1,0,1,2] = 0
 quaddistk2(1,0,2): y[2,2] + r[1,0,2,2] = 0
 quaddistk2(1,1,1): y[1,2] + r[1,1,1,2] = 0.5
 quaddistk2(1,1,2): y[2,2] + r[1,1,2,2] = 0.5
 quaddistk2(1,2,1): y[1,2] + r[1,2,1,2] = 1
 quaddistk2(1,2,2): y[2,2] + r[1,2,2,2] = 1
 quaddistk2(2,0,1): y[1,2] + r[2,0,1,2] = 0
 quaddistk2(2,0,2): y[2,2] + r[2,0,2,2] = 0
 quaddistk2(2,1,1): y[1,2] + r[2,1,1,2] = 0.5
 quaddistk2(2,1,2): y[2,2] + r[2,1,2,2] = 0.5
 quaddistk2(2,2,1): y[1,2] + r[2,2,1,2] = 1
 quaddistk2(2,2,2): y[2,2] + r[2,2,2,2] = 1
 quaddist(0,0,1): [ - s[0,0,1] ^2 + r[0,0,1,1] ^2 + r[0,0,1,2] ^2 ] <= 0
 quaddist(0,0,2): [ - s[0,0,2] ^2 + r[0,0,2,1] ^2 + r[0,0,2,2] ^2 ] <= 0
 quaddist(0,1,1): [ - s[0,1,1] ^2 + r[0,1,1,1] ^2 + r[0,1,1,2] ^2 ] <= 0
 quaddist(0,1,2): [ - s[0,1,2] ^2 + r[0,1,2,1] ^2 + r[0,1,2,2] ^2 ] <= 0
 quaddist(0,2,1): [ - s[0,2,1] ^2 + r[0,2,1,1] ^2 + r[0,2,1,2] ^2 ] <= 0
 quaddist(0,2,2): [ - s[0,2,2] ^2 + r[0,2,2,1] ^2 + r[0,2,2,2] ^2 ] <= 0
 quaddist(1,0,1): [ - s[1,0,1] ^2 + r[1,0,1,1] ^2 + r[1,0,1,2] ^2 ] <= 0
 quaddist(1,0,2): [ - s[1,0,2] ^2 + r[1,0,2,1] ^2 + r[1,0,2,2] ^2 ] <= 0
 quaddist(1,1,1): [ - s[1,1,1] ^2 + r[1,1,1,1] ^2 + r[1,1,1,2] ^2 ] <= 0
 quaddist(1,1,2): [ - s[1,1,2] ^2 + r[1,1,2,1] ^2 + r[1,1,2,2] ^2 ] <= 0
 quaddist(1,2,1): [ - s[1,2,1] ^2 + r[1,2,1,1] ^2 + r[1,2,1,2] ^2 ] <= 0
 quaddist(1,2,2): [ - s[1,2,2] ^2 + r[1,2,2,1] ^2 + r[1,2,2,2] ^2 ] <= 0
 quaddist(2,0,1): [ - s[2,0,1] ^2 + r[2,0,1,1] ^2 + r[2,0,1,2] ^2 ] <= 0
 quaddist(2,0,2): [ - s[2,0,2] ^2 + r[2,0,2,1] ^2 + r[2,0,2,2] ^2 ] <= 0
 quaddist(2,1,1): [ - s[2,1,1] ^2 + r[2,1,1,1] ^2 + r[2,1,1,2] ^2 ] <= 0
 quaddist(2,1,2): [ - s[2,1,2] ^2 + r[2,1,2,1] ^2 + r[2,1,2,2] ^2 ] <= 0
 quaddist(2,2,1): [ - s[2,2,1] ^2 + r[2,2,1,1] ^2 + r[2,2,1,2] ^2 ] <= 0
 quaddist(2,2,2): [ - s[2,2,2] ^2 + r[2,2,2,1] ^2 + r[2,2,2,2] ^2 ] <= 0
Bounds
 y[1,1] <= 1
 y[1,2] <= 1
 y[2,1] <= 1
 y[2,2] <= 1
Binaries
 z[0,0,1] z[0,0,2] z[0,1,1] z[0,1,2] z[0,2,1] z[0,2,2] z[1,0,1] z[1,0,2]
 z[1,1,1] z[1,1,2] z[1,2,1] z[1,2,2] z[2,0,1] z[2,0,2] z[2,1,1] z[2,1,2]
 z[2,2,1] z[2,2,2]
End
